proyfinal/src/viki/013/experimentInOfficeAgust.take6.output/ce046142-8503-4547-b437-436908f71090.als.out
Reading from standard input... Use '--help' for help.
============================[ Problem Statistics ]=============================
|                                                                             |
|  Number of variables:         87638                                         |
|  Number of clauses:          161767                                         |
|  Parse time:                   0.03 s                                       |
|                                                                             |
============================[ Search Statistics ]==============================
| Conflicts |          ORIGINAL         |          LEARNT          | Progress |
|           |    Vars  Clauses Literals |    Limit  Clauses Lit/Cl |          |
===============================================================================
|       100 |   63824   110358   275775 |    40464      100     38 | 27.173 % |
|       250 |   63824   110358   275775 |    44511      250     59 | 27.173 % |
|       475 |   63824   110358   275775 |    48962      475     92 | 27.173 % |
|       812 |   63824   110358   275775 |    53858      812     83 | 27.173 % |
|      1318 |   63824   110358   275775 |    59244     1318     79 | 27.173 % |
|      2077 |   63824   110358   275775 |    65168     2077     99 | 27.173 % |
|      3216 |   63824   110358   275775 |    71685     3216     96 | 27.173 % |
|      4924 |   52885    77817   195915 |    78854     4778     95 | 39.655 % |
|      7486 |   52823    77556   195273 |    86739     7332     90 | 39.726 % |
|     11330 |   52508    76437   192463 |    95413    10969     84 | 40.085 % |
|     17096 |   52361    75844   191048 |   104954    16720     79 | 40.253 % |
===============================================================================
restarts              : 63
conflicts             : 17216          (7532 /sec)
decisions             : 69202          (0.00 % random) (30276 /sec)
propagations          : 25864997       (11316091 /sec)
conflict literals     : 1344655        (39.58 % deleted)
Memory used           : 33.44 MB
CPU time              : 2.28568 s

INDETERMINATE
